cases/pglib-opf/pglib_opf_case89_pegase.m
ipopt
DCP
[info | PowerModels]: removing 1 cost terms from generator 4: [3258.3235999999997, 0.0]
[info | PowerModels]: removing 1 cost terms from generator 1: [658.6541000000001, 0.0]
[info | PowerModels]: removing 1 cost terms from generator 12: [1765.5344, 0.0]
[info | PowerModels]: removing 1 cost terms from generator 2: [3479.4851000000003, 0.0]
[info | PowerModels]: removing 1 cost terms from generator 6: [2770.7032000000004, 0.0]
[info | PowerModels]: removing 1 cost terms from generator 11: [3127.1293, 0.0]
[info | PowerModels]: removing 1 cost terms from generator 5: [1676.2466, 0.0]
[info | PowerModels]: removing 1 cost terms from generator 7: [839.8332999999999, 0.0]
[info | PowerModels]: removing 1 cost terms from generator 8: [3799.2336999999998, 0.0]
[info | PowerModels]: removing 1 cost terms from generator 10: [2251.779, 0.0]
[info | PowerModels]: removing 1 cost terms from generator 9: [2076.0836999999997, 0.0]
[info | PowerModels]: removing 1 cost terms from generator 3: [4229.3854, 0.0]

******************************************************************************
This program contains Ipopt, a library for large-scale nonlinear optimization.
 Ipopt is released as open source code under the Eclipse Public License (EPL).
         For more information visit http://projects.coin-or.org/Ipopt
******************************************************************************

This is Ipopt version 3.13.2, running with linear solver mumps.
NOTE: Other linear solvers might be more efficient (see Ipopt documentation).

Number of nonzeros in equality constraint Jacobian...:     1063
Number of nonzeros in inequality constraint Jacobian.:      824
Number of nonzeros in Lagrangian Hessian.............:        0

Total number of variables............................:      311
                     variables with only lower bounds:        0
                variables with lower and upper bounds:      222
                     variables with only upper bounds:        0
Total number of equality constraints.................:      300
Total number of inequality constraints...............:      412
        inequality constraints with only lower bounds:      206
   inequality constraints with lower and upper bounds:        0
        inequality constraints with only upper bounds:      206

iter    objective    inf_pr   inf_du lg(mu)  ||d||  lg(rg) alpha_du alpha_pr  ls
   0  8.1215627e+04 1.30e+01 2.29e+01  -1.0 0.00e+00    -  0.00e+00 0.00e+00   0
   1  8.2119221e+04 1.26e+01 2.25e+01  -1.0 1.53e+01    -  2.28e-02 2.72e-02h  1
   2  8.1662832e+04 1.23e+01 2.20e+01  -1.0 4.22e+01    -  3.82e-03 2.84e-02f  1
   3  8.0297085e+04 1.15e+01 2.06e+01  -1.0 4.59e+01    -  3.79e-02 6.54e-02f  1
   4  7.1996894e+04 1.01e+01 2.19e+01  -1.0 5.78e+01    -  4.41e-02 1.20e-01f  1
   5  7.1954528e+04 9.36e+00 1.50e+01  -1.0 3.36e+01    -  1.93e-01 7.27e-02h  1
   6  7.4870156e+04 8.08e+00 1.20e+01  -1.0 9.76e+00    -  3.65e-01 1.37e-01h  1
   7  7.8049782e+04 7.07e+00 1.09e+01  -1.0 1.57e+01    -  5.18e-01 1.25e-01h  1
   8  7.8261813e+04 7.01e+00 1.08e+01  -1.0 7.66e+00    -  6.41e-03 8.20e-03h  1
   9  8.4951311e+04 5.00e+00 7.54e+00  -1.0 1.48e+01    -  1.71e-02 2.87e-01h  1
iter    objective    inf_pr   inf_du lg(mu)  ||d||  lg(rg) alpha_du alpha_pr  ls
  10  8.5054198e+04 4.97e+00 7.53e+00  -1.0 7.44e+00    -  9.35e-02 5.88e-03h  1
  11  1.0123944e+05 8.59e-01 6.45e+00  -1.0 9.41e+00    -  3.64e-02 8.27e-01h  1
  12  1.0140503e+05 8.16e-01 4.22e+01  -1.0 1.65e+00    -  8.51e-01 4.90e-02h  1
  13  1.0426963e+05 1.58e-01 4.16e+00  -1.0 2.41e+00    -  9.92e-01 8.06e-01h  1
  14  1.0430156e+05 1.51e-01 5.65e+01  -1.0 4.19e-01    -  8.29e-01 4.63e-02h  1
  15  1.0481767e+05 5.15e-02 2.66e+01  -1.0 5.13e-01    -  5.68e-02 6.59e-01h  1
  16  1.0509021e+05 2.27e-13 1.00e-06  -1.0 2.19e-01    -  1.00e+00 1.00e+00h  1
  17  1.0504588e+05 2.27e-13 6.88e-02  -2.5 1.47e-02    -  9.62e-01 9.98e-01f  1
  18  1.0504559e+05 1.14e-13 2.83e-08  -2.5 2.10e-03    -  1.00e+00 1.00e+00f  1
  19  1.0504434e+05 2.84e-14 1.50e-09  -3.8 3.88e-04    -  1.00e+00 1.00e+00f  1
iter    objective    inf_pr   inf_du lg(mu)  ||d||  lg(rg) alpha_du alpha_pr  ls
  20  1.0504427e+05 2.27e-13 1.84e-11  -5.7 2.14e-05    -  1.00e+00 1.00e+00f  1
  21  1.0504427e+05 2.27e-13 2.11e-13  -8.6 2.66e-07    -  1.00e+00 1.00e+00f  1

Number of Iterations....: 21

                                   (scaled)                 (unscaled)
Objective...............:   2.4836770229771969e+03    1.0504427339295222e+05
Dual infeasibility......:   2.1121737451301769e-13    8.9331967999168915e-12
Constraint violation....:   7.1054273576010019e-15    2.2737367544323206e-13
Complementarity.........:   2.5088749502462663e-09    1.0610999084997286e-07
Overall NLP error.......:   2.5088749502462663e-09    1.0610999084997286e-07


Number of objective function evaluations             = 22
Number of objective gradient evaluations             = 22
Number of equality constraint evaluations            = 22
Number of inequality constraint evaluations          = 22
Number of equality constraint Jacobian evaluations   = 1
Number of inequality constraint Jacobian evaluations = 1
Number of Lagrangian Hessian evaluations             = 1
Total CPU secs in IPOPT (w/o function evaluations)   =      0.327
Total CPU secs in NLP function evaluations           =      0.231

EXIT: Optimal Solution Found.
Time to Solution........:1.2473301887512207
